54420
1,2,25,94,152,272,327,392,407,460,483,622,663,710,741,749,937,1048,1172,1239,1380,1638,1668,1768,2270,2418,2554,2575,2640,2679,2764,2817,2946,2987,3232,3390,3418,3543,3604,3611,3836,3855,3916,3958,4100,4193,4216,4367,4426,4465,4634,4648,4766,4793,4796,4811,5091,5131,5279,5388,5575,5692,5719,5760,5768,5853,5870,5937,5958,6021,6058,6128,6182,6339,6364,6398,6870,6934,7144,7230,7279,7453,7493,7547,7762,7855,7941,8070,8173,8188,8234,8392,8443,8496,8547,8553,8657,9272,9289,9492,9546,9589,9751,9821,9984
